c nIsolatedPIs 14
c maxPI 18
p cnf 62 133
c gate 19 -6 -15 0
-6 -19 0
-15 -19 0
6 15 19 0
c gate 20 5 14 0
5 -20 0
14 -20 0
-5 -14 20 0
c gate 21 -2 -11 0
-2 -21 0
-11 -21 0
2 11 21 0
c gate 22 4 13 0
4 -22 0
13 -22 0
-4 -13 22 0
c gate 23 3 12 0
3 -23 0
12 -23 0
-3 -12 23 0
c gate 24 -22 -23 0
-22 -24 0
-23 -24 0
22 23 24 0
c gate 25 21 24 0
21 -25 0
24 -25 0
-21 -24 25 0
c gate 26 -3 -12 0
-3 -26 0
-12 -26 0
3 12 26 0
c gate 27 1 10 0
1 -27 0
10 -27 0
-1 -10 27 0
c gate 28 2 11 0
2 -28 0
11 -28 0
-2 -11 28 0
c gate 29 -27 -28 0
-27 -29 0
-28 -29 0
27 28 29 0
c gate 30 -26 -29 0
-26 -30 0
-29 -30 0
26 29 30 0
c gate 31 24 -30 0
24 -31 0
-30 -31 0
-24 30 31 0
c gate 32 -5 -14 0
-5 -32 0
-14 -32 0
5 14 32 0
c gate 33 -4 -13 0
-4 -33 0
-13 -33 0
4 13 33 0
c gate 34 -32 -33 0
-32 -34 0
-33 -34 0
32 33 34 0
c gate 35 -31 34 0
-31 -35 0
34 -35 0
31 -34 35 0
c gate 36 -25 35 0
-25 -36 0
35 -36 0
25 -35 36 0
c gate 37 -20 -36 0
-20 -37 0
-36 -37 0
20 36 37 0
c gate 38 -19 -37 0
-19 -38 0
-37 -38 0
19 37 38 0
c gate 39 6 15 0
6 -39 0
15 -39 0
-6 -15 39 0
c gate 40 -20 -39 0
-20 -40 0
-39 -40 0
20 39 40 0
c gate 41 -35 40 0
-35 -41 0
40 -41 0
35 -40 41 0
c gate 42 -7 -16 0
-7 -42 0
-16 -42 0
7 16 42 0
c gate 43 -19 -42 0
-19 -43 0
-42 -43 0
19 42 43 0
c gate 44 -41 43 0
-41 -44 0
43 -44 0
41 -43 44 0
c gate 45 7 16 0
7 -45 0
16 -45 0
-7 -16 45 0
c gate 46 -39 -45 0
-39 -46 0
-45 -46 0
39 45 46 0
c gate 47 44 46 0
44 -47 0
46 -47 0
-44 -46 47 0
c gate 48 -38 47 0
-38 -48 0
47 -48 0
38 -47 48 0
c gate 49 21 27 0
21 -49 0
27 -49 0
-21 -27 49 0
c gate 50 8 17 0
8 -50 0
17 -50 0
-8 -17 50 0
c gate 51 9 18 0
9 -51 0
18 -51 0
-9 -18 51 0
c gate 52 -8 -17 0
-8 -52 0
-17 -52 0
8 17 52 0
c gate 53 -51 -52 0
-51 -53 0
-52 -53 0
51 52 53 0
c gate 54 -50 53 0
-50 -54 0
53 -54 0
50 -53 54 0
c gate 55 39 -45 0
39 -55 0
-45 -55 0
-39 45 55 0
c gate 56 -9 -18 0
-9 -56 0
-18 -56 0
9 18 56 0
c gate 57 -42 -56 0
-42 -57 0
-56 -57 0
42 56 57 0
c gate 58 55 57 0
55 -58 0
57 -58 0
-55 -57 58 0
c gate 59 54 58 0
54 -59 0
58 -59 0
-54 -58 59 0
c gate 60 -44 59 0
-44 -60 0
59 -60 0
44 -59 60 0
c gate 61 -49 -60 0
-49 -61 0
-60 -61 0
49 60 61 0
c gate 62 -48 61 0
-48 -62 0
61 -62 0
48 -61 62 0
c PO
-62 0
